instances/shortest_path/discrete/shortest_path_5_14.kp
2114
100

[5.342939855452092 2.9339357510218296 2.9624197644392343 2.3722916781000754 3.2465683381066643 1.5467056585833152 2.9004486546587693 2.409586125398025 3.764209820668416 4.073860169600504 6.194822318115243 0.34291182206296833 2.3652684353834443 5.332530634112762 4.136267279847209 2.2100889265398007]

[72 88 54 95 12 94 41 100 49 54 24 63 100 72 69 65]
